
--- Job DIETER.gms Start 11/23/18 09:08:43 24.7.4 r58773 WEX-WEI x86 64bit/MS Windows
GAMS 24.7.4   Copyright (C) 1987-2016 GAMS Development. All rights reserved
Licensee: Medium MUD - 10 User License                   S170316:1123AO-GEN
          Deutsches Institut fuer Wirtschaftsforschung DIW, AbteilungDC3975
          License for teaching and research at degree granting institutions
          License Admin: Claudia Kemfert, bbibra@diw.de                    
--- Starting compilation
--- DIETER.gms(157) 3 Mb
--- .dataload.gms(405) 3 Mb
--- GDXin=C:\Users\Lenovo\Documents\GitHub\prosumage\Code\Prosumage_Opt\Dieter_Module\Original\Data_input.gdx
--- .dataload.gms(457) 3 Mb
--- GDXin=C:\Users\Lenovo\Documents\GitHub\prosumage\Code\Prosumage_Opt\Dieter_Module\Original\time_series.gdx
--- .dataload.gms(787) 25 Mb
--- DIETER.gms(300) 25 Mb
--- .model.gms(1354) 25 Mb
--- DIETER.gms(479) 25 Mb
--- .fix.gms(329) 25 Mb
--- DIETER.gms(480) 25 Mb
--- .scenario.gms(122) 25 Mb
--- DIETER.gms(639) 25 Mb
--- .report.gms(1411) 25 Mb
--- DIETER.gms(670) 26 Mb
--- Starting execution: elapsed 0:00:00.157
--- DIETER.gms(3227) 181 Mb
---
--- collecting and writing gdx file 
---
--- Generating LP model DIETER
--- DIETER.gms(1356) 197 Mb  24 secs
--- DIETER.gms(1434) 222 Mb  26 secs
--- DIETER.gms(1626) 277 Mb  29 secs
--- DIETER.gms(3227) 280 Mb
---   271,592 rows  324,136 columns  1,248,838 non-zeroes
---   122,646 nl-code  87,601 nl-non-zeroes
--- DIETER.gms(3227) 278 Mb
--- Executing CPLEX: elapsed 0:01:25.727

GUSS             24.7.4 r58773 Released Sep 19, 2016 WEI x86 64bit/MS Windows 
Reading parameter(s) from scenario dictionary
>>  Logoption 2
>>  Optfile 1
>>  Skipbasecase 1
--- Scenario Variable with potential updates identified: phi_min_res

IBM ILOG CPLEX   24.7.4 r58773 Released Sep 19, 2016 WEI x86 64bit/MS Windows 
--- GAMS/Cplex licensed for continuous and discrete problems.
Cplex 12.6.3.0

Reading parameter(s) from "C:\Users\Lenovo\Documents\GitHub\prosumage\Code\Prosumage_Opt\Dieter_Module\Original\cplex.opt"
>>  lpmethod 4
>>  threads 4
>>  epgap 1e-3
Finished reading from "C:\Users\Lenovo\Documents\GitHub\prosumage\Code\Prosumage_Opt\Dieter_Module\Original\cplex.opt"
Reading data...
Starting Cplex...
Space for names approximately 19.27 Mb
Use option 'names no' to turn use of names off
Tried aggregator 1 time.
LP Presolve eliminated 12655 rows and 38914 columns.
Aggregator did 3 substitutions.
Reduced LP has 258934 rows, 285219 columns, and 904330 nonzeros.
Presolve time = 0.72 sec. (343.07 ticks)
Parallel mode: using up to 4 threads for barrier.

***NOTE: Found 16 dense columns.

Number of nonzeros in lower triangle of A*A' = 780622
Using Approximate Minimum Degree ordering
Total time for automatic ordering = 0.63 sec. (102.75 ticks)
Summary statistics for Cholesky factor:
  Threads                   = 4
  Rows in Factor            = 258950
  Integer space required    = 722524
  Total non-zeros in factor = 3283741
  Total FP ops to factor    = 63813971
 Itn      Primal Obj        Dual Obj  Prim Inf Upper Inf  Dual Inf Inf Ratio
   0  4.6266042e+012 -1.0647068e+011 1.60e+011 1.43e+007 1.99e+010 1.00e+000
   1  6.9148231e+011  1.5140117e+010 2.29e+010 2.05e+006 2.85e+009 5.26e-007
   2  5.1890085e+011  5.0894410e+010 1.67e+010 1.49e+006 4.09e+008 2.96e-008
   3  3.6577248e+011  5.3481206e+010 1.10e+010 9.85e+005 3.48e+008 4.25e-008
   4  3.4575975e+011  4.7544476e+010 1.04e+010 9.32e+005 3.13e+008 4.89e-008
   5  2.3484947e+011  6.9267555e+010 6.07e+009 5.44e+005 9.90e+007 5.45e-008
   6  1.4169560e+011  5.4835621e+010 3.16e+009 2.83e+005 4.95e+007 9.80e-008
   7  7.6777351e+010  4.7200513e+010 1.17e+009 1.05e+005 2.64e+007 2.08e-007
   8  5.0027227e+010  3.9764263e+010 4.16e+008 3.72e+004 9.81e+006 6.10e-007
   9  4.6152165e+010  3.8123179e+010 3.12e+008 2.79e+004 6.75e+006 9.14e-007
  10  4.4167070e+010  3.6836965e+010 2.59e+008 2.32e+004 4.45e+006 1.43e-006
  11  4.1522399e+010  3.5843525e+010 1.91e+008 1.71e+004 2.83e+006 2.36e-006
  12  4.0853597e+010  3.5738690e+010 1.72e+008 1.54e+004 2.53e+006 2.68e-006
  13  3.8374848e+010  3.5123336e+010 1.12e+008 1.00e+004 1.76e+006 4.30e-006
  14  3.6735522e+010  3.4451466e+010 7.35e+007 6.58e+003 9.70e+005 8.84e-006
  15  3.5466724e+010  3.4135107e+010 4.44e+007 3.98e+003 6.36e+005 1.56e-005
  16  3.5289909e+010  3.4045215e+010 4.03e+007 3.61e+003 5.37e+005 1.93e-005
  17  3.5050968e+010  3.3996145e+010 3.45e+007 3.09e+003 4.73e+005 2.27e-005
  18  3.4729899e+010  3.3791700e+010 2.70e+007 2.42e+003 2.49e+005 5.54e-005
  19  3.4437574e+010  3.3726171e+010 2.02e+007 1.81e+003 1.75e+005 8.72e-005
  20  3.4216821e+010  3.3679597e+010 1.54e+007 1.38e+003 1.36e+005 1.20e-004
  21  3.4040321e+010  3.3645780e+010 1.14e+007 1.02e+003 1.06e+005 1.65e-004
  22  3.3890038e+010  3.3643818e+010 7.96e+006 7.13e+002 1.04e+005 1.70e-004
  23  3.3816857e+010  3.3616848e+010 6.25e+006 5.60e+002 7.44e+004 2.64e-004
  24  3.3765211e+010  3.3607051e+010 5.05e+006 4.52e+002 6.39e+004 3.20e-004
  25  3.3738597e+010  3.3587828e+010 4.43e+006 3.97e+002 4.31e+004 5.35e-004
  26  3.3660651e+010  3.3569743e+010 2.64e+006 2.36e+002 2.45e+004 1.12e-003
  27  3.3600494e+010  3.3557178e+010 1.27e+006 1.14e+002 1.24e+004 2.43e-003
  28  3.3589379e+010  3.3554068e+010 1.02e+006 9.12e+001 9.21e+003 3.48e-003
  29  3.3578170e+010  3.3552685e+010 7.68e+005 6.88e+001 7.97e+003 4.14e-003
  30  3.3571553e+010  3.3551566e+010 6.16e+005 5.52e+001 6.85e+003 4.96e-003
  31  3.3567329e+010  3.3550297e+010 5.19e+005 4.64e+001 5.55e+003 6.39e-003
  32  3.3563897e+010  3.3549422e+010 4.40e+005 3.94e+001 4.68e+003 7.83e-003
  33  3.3559839e+010  3.3548610e+010 3.47e+005 3.11e+001 3.87e+003 9.80e-003
  34  3.3557432e+010  3.3547861e+010 2.92e+005 2.61e+001 3.13e+003 1.26e-002
  35  3.3555348e+010  3.3547293e+010 2.44e+005 2.19e+001 2.59e+003 1.58e-002
  36  3.3553670e+010  3.3546904e+010 2.06e+005 1.85e+001 2.22e+003 1.89e-002
  37  3.3551958e+010  3.3546617e+010 1.67e+005 1.50e+001 1.95e+003 2.20e-002
  38  3.3550057e+010  3.3546037e+010 1.24e+005 1.11e+001 1.37e+003 3.31e-002
  39  3.3548704e+010  3.3545705e+010 9.33e+004 8.35e+000 1.06e+003 4.47e-002
  40  3.3547353e+010  3.3545507e+010 6.20e+004 5.61e+000 8.72e+002 5.59e-002
  41  3.3547056e+010  3.3545448e+010 5.51e+004 5.00e+000 8.13e+002 6.07e-002
  42  3.3546646e+010  3.3545305e+010 4.57e+004 4.15e+000 6.68e+002 7.62e-002
  43  3.3546377e+010  3.3545162e+010 3.97e+004 3.60e+000 5.29e+002 9.99e-002
  44  3.3546097e+010  3.3545054e+010 3.35e+004 3.04e+000 4.31e+002 1.26e-001
  45  3.3545758e+010  3.3544971e+010 2.61e+004 2.37e+000 3.58e+002 1.55e-001
  46  3.3545611e+010  3.3544809e+010 2.29e+004 2.08e+000 2.15e+002 2.81e-001
  47  3.3545412e+010  3.3544728e+010 1.87e+004 1.70e+000 1.55e+002 3.94e-001
  48  3.3545115e+010  3.3544706e+010 1.25e+004 1.13e+000 1.39e+002 4.41e-001
  49  3.3544912e+010  3.3544660e+010 8.07e+003 7.33e-001 1.00e+002 6.23e-001
  50  3.3544821e+010  3.3544606e+010 6.06e+003 5.50e-001 5.27e+001 1.27e+000
  51  3.3544814e+010  3.3544604e+010 5.91e+003 5.37e-001 5.08e+001 1.32e+000
  52  3.3544749e+010  3.3544594e+010 4.53e+003 4.11e-001 4.37e+001 1.53e+000
  53  3.3544690e+010  3.3544577e+010 3.25e+003 2.95e-001 3.02e+001 2.23e+000
  54  3.3544673e+010  3.3544575e+010 2.88e+003 2.62e-001 2.85e+001 2.36e+000
  55  3.3544667e+010  3.3544574e+010 2.75e+003 2.50e-001 2.78e+001 2.41e+000
  56  3.3544651e+010  3.3544568e+010 2.40e+003 2.19e-001 2.19e+001 3.08e+000
  57  3.3544601e+010  3.3544562e+010 1.31e+003 1.19e-001 1.76e+001 3.84e+000
  58  3.3544584e+010  3.3544553e+010 9.26e+002 8.38e-002 8.61e+000 8.45e+000
  59  3.3544578e+010  3.3544552e+010 8.01e+002 7.19e-002 7.50e+000 9.67e+000
  60  3.3544564e+010  3.3544548e+010 4.81e+002 4.29e-002 4.55e+000 1.59e+001
  61  3.3544561e+010  3.3544547e+010 4.19e+002 3.69e-002 3.94e+000 1.83e+001
  62  3.3544554e+010  3.3544546e+010 3.15e+002 2.39e-002 2.78e+000 2.58e+001
  63  3.3544554e+010  3.3544546e+010 3.06e+002 2.33e-002 2.59e+000 2.78e+001
  64  3.3544553e+010  3.3544545e+010 2.78e+002 1.99e-002 1.96e+000 3.68e+001
  65  3.3544546e+010  3.3544543e+010 2.33e+002 6.86e-003 4.52e-001 1.55e+002
  66  3.3544543e+010  3.3544543e+010 1.12e+002 5.23e-004 1.59e-001 4.38e+002
  67  3.3544543e+010  3.3544543e+010 2.05e+001 3.92e-005 1.05e-002 6.92e+003
  68  3.3544543e+010  3.3544543e+010 5.38e+002 2.61e-006 2.36e-003 3.14e+004
Barrier time = 51.84 sec. (11344.65 ticks)
Parallel mode: deterministic, using up to 4 threads for concurrent optimization.

Dual crossover.
  Dual:  Fixing 100075 variables.
   100074 DMoves:  Infeasibility 1.29887212e-011  Objective 3.35445429e+010
    98654 DMoves:  Infeasibility 1.34257050e-011  Objective 3.35445429e+010
    98140 DMoves:  Infeasibility 1.30313538e-011  Objective 3.35445429e+010
    96664 DMoves:  Infeasibility 1.35358391e-011  Objective 3.35445429e+010
    88821 DMoves:  Infeasibility 1.31805677e-011  Objective 3.35445429e+010
    84778 DMoves:  Infeasibility 1.36264333e-011  Objective 3.35445429e+010
    81733 DMoves:  Infeasibility 1.33368872e-011  Objective 3.35445429e+010
    78523 DMoves:  Infeasibility 1.35820244e-011  Objective 3.35445429e+010
    59815 DMoves:  Infeasibility 1.31414879e-011  Objective 3.35445429e+010
    56055 DMoves:  Infeasibility 1.36513023e-011  Objective 3.35445429e+010
    52369 DMoves:  Infeasibility 1.33262290e-011  Objective 3.35445429e+010
    46872 DMoves:  Infeasibility 1.31912259e-011  Objective 3.35445429e+010
    40533 DMoves:  Infeasibility 1.35251810e-011  Objective 3.35445429e+010
    16643 DMoves:  Infeasibility 1.53086432e-011  Objective 3.35445429e+010
    11734 DMoves:  Infeasibility 1.44915191e-011  Objective 3.35445429e+010
        0 DMoves:  Infeasibility 1.89971526e-011  Objective 3.35445429e+010
  Dual:  Pushed 79256, exchanged 20819.
  Primal:  Fixing 4604 variables.
     4603 PMoves:  Infeasibility 1.04364517e-010  Objective 3.35445429e+010
     3125 PMoves:  Infeasibility 4.52473614e-011  Objective 3.35445429e+010
     1696 PMoves:  Infeasibility 5.00222086e-011  Objective 3.35445429e+010
Using devex.

Primal simplex solved model.

Total crossover time = 8.09 sec. (6194.31 ticks)

Total time on 4 threads = 60.75 sec. (17891.81 ticks)
LP status(1): optimal
Cplex Time: 60.75sec (det. 17892.59 ticks)

Optimal solution found.
Objective : 33544542852.728622

--- Scenario scen1:     Records read:    1
--- Solution statistics for scenario scen1
---   Solver Status    1 Normal Completion         
---   Model Status     1 Optimal                   
---   Objective Value  33544542852.7286
---   Resource Usage   61485
---   Total Time (ms)  61656

IBM ILOG CPLEX   24.7.4 r58773 Released Sep 19, 2016 WEI x86 64bit/MS Windows 
--- GAMS/Cplex licensed for continuous and discrete problems.
Cplex 12.6.3.0

Reading parameter(s) from "C:\Users\Lenovo\Documents\GitHub\prosumage\Code\Prosumage_Opt\Dieter_Module\Original\cplex.opt"
>>  lpmethod 4
>>  threads 4
>>  epgap 1e-3
Finished reading from "C:\Users\Lenovo\Documents\GitHub\prosumage\Code\Prosumage_Opt\Dieter_Module\Original\cplex.opt"
Reading data...
Starting Cplex...
Space for names approximately 19.27 Mb
Use option 'names no' to turn use of names off
Tried aggregator 1 time.
LP Presolve eliminated 12655 rows and 38914 columns.
Aggregator did 3 substitutions.
Reduced LP has 258934 rows, 285219 columns, and 904330 nonzeros.
Presolve time = 0.63 sec. (343.07 ticks)
Parallel mode: using up to 4 threads for barrier.

***NOTE: Found 16 dense columns.

Number of nonzeros in lower triangle of A*A' = 780622
Using Approximate Minimum Degree ordering
Total time for automatic ordering = 0.36 sec. (102.75 ticks)
Summary statistics for Cholesky factor:
  Threads                   = 4
  Rows in Factor            = 258950
  Integer space required    = 722524
  Total non-zeros in factor = 3283741
  Total FP ops to factor    = 63813971
 Itn      Primal Obj        Dual Obj  Prim Inf Upper Inf  Dual Inf Inf Ratio
   0  4.6266042e+012 -1.0647068e+011 1.59e+011 1.43e+007 1.99e+010 1.00e+000
   1  6.9311540e+011  1.1108108e+010 2.30e+010 2.07e+006 2.87e+009 9.71e-007
   2  3.8492562e+011  4.0868341e+010 1.20e+010 1.08e+006 4.47e+008 6.31e-008
   3  4.8968243e+011  9.1066817e+010 1.36e+010 1.22e+006 4.94e+008 1.85e-008
   4  2.3908689e+011  9.3986146e+010 4.95e+009 4.46e+005 1.11e+008 7.77e-008
   5  1.5900053e+011  4.5624738e+010 3.13e+009 2.82e+005 3.74e+007 6.30e-008
   6  1.0085052e+011  3.5649765e+010 1.78e+009 1.60e+005 2.00e+007 1.01e-007
   7  8.6926190e+010  3.4489575e+010 1.42e+009 1.28e+005 1.22e+007 1.43e-007
   8  5.9693230e+010  3.2921640e+010 7.24e+008 6.52e+004 6.31e+006 2.73e-007
   9  4.8972616e+010  3.3241278e+010 4.23e+008 3.81e+004 4.22e+006 4.40e-007
  10  4.4994921e+010  3.3267545e+010 3.11e+008 2.80e+004 4.08e+006 4.86e-007
  11  4.3115454e+010  3.3697674e+010 2.56e+008 2.30e+004 2.41e+006 9.19e-007
  12  4.1283168e+010  3.3720155e+010 2.06e+008 1.85e+004 1.77e+006 1.35e-006
  13  3.8673844e+010  3.3717086e+010 1.35e+008 1.21e+004 1.28e+006 2.08e-006
  14  3.6666012e+010  3.3654172e+010 8.20e+007 7.38e+003 7.92e+005 3.75e-006
  15  3.5665601e+010  3.3613328e+010 5.57e+007 5.01e+003 4.76e+005 7.63e-006
  16  3.5231985e+010  3.3584490e+010 4.45e+007 4.00e+003 3.46e+005 1.17e-005
  17  3.5197319e+010  3.3593018e+010 4.33e+007 3.90e+003 3.36e+005 1.21e-005
  18  3.4883812e+010  3.3582939e+010 3.50e+007 3.15e+003 2.27e+005 2.07e-005
  19  3.4469662e+010  3.3566716e+010 2.43e+007 2.19e+003 1.55e+005 3.47e-005
  20  3.4288010e+010  3.3556966e+010 1.96e+007 1.77e+003 1.18e+005 5.00e-005
  21  3.4065212e+010  3.3549793e+010 1.39e+007 1.25e+003 9.16e+004 7.03e-005
  22  3.3970972e+010  3.3547483e+010 1.14e+007 1.03e+003 7.59e+004 9.01e-005
  23  3.3927359e+010  3.3544716e+010 1.03e+007 9.24e+002 5.46e+004 1.40e-004
  24  3.3801080e+010  3.3543189e+010 6.94e+006 6.25e+002 4.38e+004 1.87e-004
  25  3.3785037e+010  3.3545028e+010 6.47e+006 5.82e+002 4.01e+004 2.09e-004
  26  3.3661958e+010  3.3544755e+010 3.16e+006 2.85e+002 2.45e+004 4.15e-004
  27  3.3608242e+010  3.3545845e+010 1.68e+006 1.52e+002 1.26e+004 1.04e-003
  28  3.3590387e+010  3.3545649e+010 1.21e+006 1.09e+002 9.22e+003 1.56e-003
  29  3.3587889e+010  3.3545732e+010 1.14e+006 1.03e+002 7.99e+003 1.88e-003
  30  3.3579249e+010  3.3545510e+010 9.14e+005 8.23e+001 6.78e+003 2.31e-003
  31  3.3572183e+010  3.3545426e+010 7.27e+005 6.54e+001 6.07e+003 2.66e-003
  32  3.3566615e+010  3.3545401e+010 5.77e+005 5.20e+001 5.47e+003 3.03e-003
  33  3.3562868e+010  3.3545398e+010 4.75e+005 4.28e+001 4.36e+003 4.06e-003
  34  3.3557943e+010  3.3545358e+010 3.43e+005 3.09e+001 3.67e+003 5.07e-003
  35  3.3555377e+010  3.3545322e+010 2.74e+005 2.47e+001 2.97e+003 6.65e-003
  36  3.3554132e+010  3.3545278e+010 2.41e+005 2.17e+001 2.50e+003 8.26e-003
  37  3.3552797e+010  3.3545227e+010 2.06e+005 1.86e+001 2.18e+003 9.81e-003
  38  3.3551389e+010  3.3545181e+010 1.70e+005 1.53e+001 1.93e+003 1.15e-002
  39  3.3550382e+010  3.3545062e+010 1.44e+005 1.29e+001 1.24e+003 2.06e-002
  40  3.3548426e+010  3.3544951e+010 9.55e+004 8.59e+000 9.62e+002 2.81e-002
  41  3.3547227e+010  3.3544896e+010 6.54e+004 5.88e+000 8.02e+002 3.52e-002
  42  3.3546861e+010  3.3544875e+010 5.60e+004 5.04e+000 7.24e+002 3.99e-002
  43  3.3546691e+010  3.3544840e+010 5.17e+004 4.65e+000 6.03e+002 5.01e-002
  44  3.3546533e+010  3.3544792e+010 4.77e+004 4.29e+000 4.73e+002 6.76e-002
  45  3.3546323e+010  3.3544749e+010 4.26e+004 3.84e+000 3.86e+002 8.66e-002
  46  3.3545986e+010  3.3544711e+010 3.46e+004 3.11e+000 3.15e+002 1.10e-001
  47  3.3545905e+010  3.3544642e+010 3.26e+004 2.94e+000 1.86e+002 2.10e-001
  48  3.3545452e+010  3.3544612e+010 2.22e+004 2.00e+000 1.51e+002 2.64e-001
  49  3.3545257e+010  3.3544591e+010 1.75e+004 1.58e+000 1.16e+002 3.53e-001
  50  3.3545090e+010  3.3544585e+010 1.35e+004 1.22e+000 1.06e+002 3.91e-001
  51  3.3544833e+010  3.3544573e+010 7.22e+003 6.51e-001 7.69e+001 5.54e-001
  52  3.3544817e+010  3.3544572e+010 6.81e+003 6.14e-001 7.43e+001 5.77e-001
  53  3.3544802e+010  3.3544570e+010 6.42e+003 5.78e-001 6.73e+001 6.47e-001
  54  3.3544742e+010  3.3544567e+010 4.88e+003 4.40e-001 5.67e+001 7.88e-001
  55  3.3544636e+010  3.3544566e+010 2.18e+003 1.97e-001 5.30e+001 8.51e-001
  56  3.3544621e+010  3.3544563e+010 1.69e+003 1.56e-001 2.82e+001 1.93e+000
  57  3.3544611e+010  3.3544562e+010 1.48e+003 1.36e-001 2.58e+001 2.14e+000
  58  3.3544609e+010  3.3544562e+010 1.42e+003 1.31e-001 2.53e+001 2.19e+000
  59  3.3544605e+010  3.3544561e+010 1.33e+003 1.22e-001 2.33e+001 2.41e+000
  60  3.3544585e+010  3.3544559e+010 8.77e+002 8.07e-002 2.11e+001 2.69e+000
  61  3.3544576e+010  3.3544557e+010 6.74e+002 6.20e-002 1.77e+001 3.32e+000
  62  3.3544566e+010  3.3544551e+010 4.44e+002 4.06e-002 7.71e+000 9.67e+000
  63  3.3544557e+010  3.3544549e+010 3.91e+002 2.38e-002 5.67e+000 1.35e+001
  64  3.3544548e+010  3.3544547e+010 1.43e+002 7.89e-003 3.61e+000 2.21e+001
  65  3.3544546e+010  3.3544546e+010 1.20e+002 3.97e-003 2.95e+000 2.79e+001
  66  3.3544546e+010  3.3544545e+010 1.10e+002 3.64e-003 1.03e+000 1.19e+002
  67  3.3544544e+010  3.3544543e+010 1.99e+003 1.87e-003 3.40e-001 3.56e+002
  68  3.3544543e+010  3.3544543e+010 1.88e+003 3.51e-004 7.34e-002 1.55e+003
  69  3.3544543e+010  3.3544543e+010 8.51e+002 6.18e-005 1.07e-002 9.66e+003
Barrier time = 40.89 sec. (10870.05 ticks)
Parallel mode: deterministic, using up to 4 threads for concurrent optimization.

Dual crossover.
  Dual:  Fixing 100129 variables.
   100128 DMoves:  Infeasibility 1.38165035e-011  Objective 3.35445429e+010
    98739 DMoves:  Infeasibility 1.45092827e-011  Objective 3.35445429e+010
    98357 DMoves:  Infeasibility 1.44062540e-011  Objective 3.35445429e+010
    96825 DMoves:  Infeasibility 1.44098067e-011  Objective 3.35445429e+010
    88857 DMoves:  Infeasibility 1.44595447e-011  Objective 3.35445429e+010
    84846 DMoves:  Infeasibility 1.41504586e-011  Objective 3.35445429e+010
    81823 DMoves:  Infeasibility 1.42428291e-011  Objective 3.35445429e+010
    78572 DMoves:  Infeasibility 1.39763756e-011  Objective 3.35445429e+010
    60101 DMoves:  Infeasibility 1.40634171e-011  Objective 3.35445429e+010
    55986 DMoves:  Infeasibility 1.41859857e-011  Objective 3.35445429e+010
    53172 DMoves:  Infeasibility 1.41433532e-011  Objective 3.35445429e+010
    41010 DMoves:  Infeasibility 1.41522349e-011  Objective 3.35445429e+010
    37278 DMoves:  Infeasibility 1.48716595e-011  Objective 3.35445429e+010
    17384 DMoves:  Infeasibility 1.57989177e-011  Objective 3.35445429e+010
    12337 DMoves:  Infeasibility 1.53281832e-011  Objective 3.35445429e+010
        0 DMoves:  Infeasibility 2.05208385e-011  Objective 3.35445429e+010
  Dual:  Pushed 78992, exchanged 21137.
  Primal:  Fixing 4562 variables.
     4561 PMoves:  Infeasibility 4.72626254e+000  Objective 3.35445429e+010
     3097 PMoves:  Infeasibility 2.26789784e+000  Objective 3.35445429e+010
     1662 PMoves:  Infeasibility 1.53477231e-010  Objective 3.35445429e+010
Using devex.

Primal simplex solved model.

Total crossover time = 12.17 sec. (6152.83 ticks)

Total time on 4 threads = 53.77 sec. (17375.73 ticks)
LP status(1): optimal
Cplex Time: 53.77sec (det. 17376.50 ticks)

Optimal solution found.
Objective : 33544542852.728615

--- Scenario scen2:     Records read:    1
--- Solution statistics for scenario scen2
---   Solver Status    1 Normal Completion         
---   Model Status     1 Optimal                   
---   Objective Value  33544542852.7286
---   Resource Usage   54469
---   Total Time (ms)  54719

IBM ILOG CPLEX   24.7.4 r58773 Released Sep 19, 2016 WEI x86 64bit/MS Windows 
--- GAMS/Cplex licensed for continuous and discrete problems.
Cplex 12.6.3.0

Reading parameter(s) from "C:\Users\Lenovo\Documents\GitHub\prosumage\Code\Prosumage_Opt\Dieter_Module\Original\cplex.opt"
>>  lpmethod 4
>>  threads 4
>>  epgap 1e-3
Finished reading from "C:\Users\Lenovo\Documents\GitHub\prosumage\Code\Prosumage_Opt\Dieter_Module\Original\cplex.opt"
Reading data...
Starting Cplex...
Space for names approximately 19.27 Mb
Use option 'names no' to turn use of names off
Tried aggregator 1 time.
LP Presolve eliminated 12655 rows and 38914 columns.
Aggregator did 3 substitutions.
Reduced LP has 258934 rows, 285219 columns, and 904330 nonzeros.
Presolve time = 0.89 sec. (343.07 ticks)
Parallel mode: using up to 4 threads for barrier.

***NOTE: Found 16 dense columns.

Number of nonzeros in lower triangle of A*A' = 780622
Using Approximate Minimum Degree ordering
Total time for automatic ordering = 0.27 sec. (102.75 ticks)
Summary statistics for Cholesky factor:
  Threads                   = 4
  Rows in Factor            = 258950
  Integer space required    = 722524
  Total non-zeros in factor = 3283741
  Total FP ops to factor    = 63813971
 Itn      Primal Obj        Dual Obj  Prim Inf Upper Inf  Dual Inf Inf Ratio
   0  4.6266042e+012 -1.0647068e+011 1.67e+011 1.43e+007 1.99e+010 1.00e+000
   1  7.0610196e+011  1.4350350e+010 2.44e+010 2.10e+006 2.91e+009 4.84e-008
   2  3.4035331e+011  7.4362945e+010 1.00e+010 8.61e+005 4.48e+008 2.01e-008
   3  2.0659303e+011  9.4702831e+010 4.09e+009 3.51e+005 2.22e+008 1.70e-008
   4  1.5037289e+011  6.9758563e+010 2.52e+009 2.16e+005 6.10e+007 9.21e-008
   5  9.3679750e+010  5.7316701e+010 1.27e+009 1.09e+005 3.87e+007 1.23e-007
   6  6.8035145e+010  5.0412792e+010 6.42e+008 5.51e+004 2.14e+007 2.04e-007
   7  6.1734376e+010  4.5215706e+010 4.88e+008 4.19e+004 8.47e+006 4.22e-007
   8  5.4132489e+010  4.2750001e+010 3.14e+008 2.69e+004 4.08e+006 9.06e-007
   9  4.7311125e+010  4.2174667e+010 1.58e+008 1.36e+004 3.09e+006 1.32e-006
  10  4.6846454e+010  4.2048028e+010 1.47e+008 1.26e+004 2.85e+006 1.47e-006
  11  4.5286672e+010  4.1723057e+010 1.09e+008 9.40e+003 2.13e+006 2.06e-006
  12  4.4389870e+010  4.1501955e+010 8.80e+007 7.55e+003 1.66e+006 2.84e-006
  13  4.4109109e+010  4.1446209e+010 8.08e+007 6.93e+003 1.49e+006 3.26e-006
  14  4.3172220e+010  4.1305598e+010 5.97e+007 5.13e+003 1.27e+006 4.02e-006
  15  4.2920840e+010  4.1242322e+010 5.45e+007 4.67e+003 1.18e+006 4.40e-006
  16  4.2571760e+010  4.1190884e+010 4.69e+007 4.03e+003 1.11e+006 4.77e-006
  17  4.2414460e+010  4.1117260e+010 4.35e+007 3.73e+003 1.00e+006 5.45e-006
  18  4.2168259e+010  4.1063249e+010 3.82e+007 3.28e+003 9.31e+005 6.02e-006
  19  4.2012513e+010  4.1013859e+010 3.49e+007 3.00e+003 8.65e+005 6.64e-006
  20  4.1844842e+010  4.0960540e+010 3.14e+007 2.69e+003 7.95e+005 7.43e-006
  21  4.1705500e+010  4.0932259e+010 2.85e+007 2.44e+003 7.58e+005 7.91e-006
  22  4.1622069e+010  4.0896974e+010 2.67e+007 2.29e+003 7.12e+005 8.59e-006
  23  4.1527134e+010  4.0849816e+010 2.47e+007 2.12e+003 6.53e+005 9.63e-006
  24  4.1408047e+010  4.0817191e+010 2.23e+007 1.92e+003 6.14e+005 1.04e-005
  25  4.1241433e+010  4.0758815e+010 1.90e+007 1.63e+003 5.47e+005 1.21e-005
  26  4.1052179e+010  4.0727622e+010 1.54e+007 1.32e+003 5.13e+005 1.32e-005
  27  4.0969902e+010  4.0694694e+010 1.38e+007 1.18e+003 4.77e+005 1.45e-005
  28  4.0951725e+010  4.0689903e+010 1.34e+007 1.15e+003 4.72e+005 1.47e-005
  29  4.0928765e+010  4.0617206e+010 1.30e+007 1.11e+003 3.95e+005 1.89e-005
  30  4.0916501e+010  4.0589338e+010 1.28e+007 1.09e+003 3.64e+005 2.10e-005
  31  4.0726045e+010  4.0555666e+010 9.26e+006 7.95e+002 3.31e+005 2.38e-005
  32  4.0651209e+010  4.0492752e+010 7.86e+006 6.74e+002 2.67e+005 3.19e-005
  33  4.0609714e+010  4.0461314e+010 7.14e+006 6.13e+002 2.39e+005 3.71e-005
  34  4.0596017e+010  4.0454669e+010 6.91e+006 5.93e+002 2.33e+005 3.82e-005
  35  4.0534897e+010  4.0424157e+010 5.90e+006 5.06e+002 2.07e+005 4.46e-005
  36  4.0482845e+010  4.0400648e+010 5.06e+006 4.34e+002 1.88e+005 5.07e-005
  37  4.0466403e+010  4.0391539e+010 4.80e+006 4.12e+002 1.81e+005 5.33e-005
  38  4.0410911e+010  4.0368958e+010 3.93e+006 3.37e+002 1.63e+005 6.10e-005
  39  4.0397106e+010  4.0355709e+010 3.69e+006 3.17e+002 1.52e+005 6.71e-005
  40  4.0354605e+010  4.0327629e+010 3.05e+006 2.62e+002 1.31e+005 8.17e-005
  41  4.0342617e+010  4.0322455e+010 2.88e+006 2.47e+002 1.27e+005 8.47e-005
  42  4.0327940e+010  4.0311305e+010 2.67e+006 2.29e+002 1.19e+005 9.20e-005
  43  4.0280858e+010  4.0273176e+010 2.00e+006 1.72e+002 9.29e+004 1.28e-004
  44  4.0240853e+010  4.0263120e+010 1.48e+006 1.27e+002 8.65e+004 1.41e-004
  45  4.0217163e+010  4.0248463e+010 1.16e+006 1.00e+002 7.70e+004 1.64e-004
  46  4.0205129e+010  4.0242806e+010 1.01e+006 8.67e+001 7.34e+004 1.74e-004
  47  4.0192412e+010  4.0223558e+010 8.49e+005 7.29e+001 6.14e+004 2.21e-004
  48  4.0179348e+010  4.0216949e+010 6.98e+005 5.99e+001 5.75e+004 2.41e-004
  49  4.0164316e+010  4.0207516e+010 5.25e+005 4.51e+001 5.20e+004 2.74e-004
  50  4.0156694e+010  4.0198025e+010 4.40e+005 3.78e+001 4.65e+004 3.16e-004
  51  4.0148159e+010  4.0188043e+010 3.53e+005 3.03e+001 4.10e+004 3.72e-004
  52  4.0142499e+010  4.0167625e+010 2.99e+005 2.57e+001 3.02e+004 5.69e-004
  53  4.0132754e+010  4.0158381e+010 2.24e+005 1.92e+001 2.58e+004 6.99e-004
  54  4.0129661e+010  4.0155033e+010 2.00e+005 1.72e+001 2.42e+004 7.57e-004
  55  4.0127545e+010  4.0149074e+010 1.85e+005 1.59e+001 2.15e+004 8.85e-004
  56  4.0124993e+010  4.0142905e+010 1.67e+005 1.44e+001 1.87e+004 1.06e-003
  57  4.0117714e+010  4.0131111e+010 1.20e+005 1.03e+001 1.37e+004 1.61e-003
  58  4.0116919e+010  4.0127776e+010 1.15e+005 9.88e+000 1.23e+004 1.84e-003
  59  4.0111081e+010  4.0122593e+010 8.20e+004 7.04e+000 1.03e+004 2.32e-003
  60  4.0108426e+010  4.0119199e+010 6.74e+004 5.78e+000 8.94e+003 2.77e-003
  61  4.0107637e+010  4.0115201e+010 6.30e+004 5.42e+000 7.41e+003 3.53e-003
  62  4.0103437e+010  4.0111902e+010 4.11e+004 3.62e+000 6.20e+003 4.42e-003
  63  4.0103309e+010  4.0111365e+010 4.05e+004 3.56e+000 6.00e+003 4.60e-003
  64  4.0102295e+010  4.0108694e+010 3.49e+004 3.13e+000 5.03e+003 5.75e-003
  65  4.0100167e+010  4.0106165e+010 2.58e+004 2.29e+000 4.14e+003 7.36e-003
  66  4.0099196e+010  4.0103283e+010 2.16e+004 1.91e+000 3.14e+003 1.05e-002
  67  4.0098042e+010  4.0100025e+010 1.70e+004 1.51e+000 2.08e+003 1.74e-002
  68  4.0096068e+010  4.0097119e+010 9.87e+003 8.79e-001 1.17e+003 3.38e-002
  69  4.0095406e+010  4.0095059e+010 7.50e+003 6.72e-001 5.48e+002 8.49e-002
  70  4.0094270e+010  4.0093986e+010 3.81e+003 3.38e-001 2.45e+002 2.04e-001
  71  4.0093556e+010  4.0093610e+010 1.41e+003 1.26e-001 1.37e+002 3.78e-001
  72  4.0093349e+010  4.0093437e+010 6.23e+002 5.55e-002 8.11e+001 6.89e-001
  73  4.0093251e+010  4.0093357e+010 2.43e+002 2.17e-002 5.49e+001 1.08e+000
  74  4.0093186e+010  4.0093267e+010 3.36e+001 3.00e-003 2.77e+001 2.18e+000
  75  4.0093176e+010  4.0093198e+010 2.59e+000 2.24e-004 6.89e+000 9.37e+000
  76  4.0093175e+010  4.0093177e+010 2.04e-001 1.78e-005 6.94e-001 1.30e+002
  77  4.0093174e+010  4.0093175e+010 3.14e-001 9.50e-007 1.39e-001 6.58e+002
  78  4.0093174e+010  4.0093174e+010 3.05e+000 5.71e-008 2.04e-002 4.78e+003
  79  4.0093174e+010  4.0093174e+010 4.36e+001 3.63e-009 6.03e-003 1.67e+004
Barrier time = 46.00 sec. (10819.77 ticks)
Parallel mode: deterministic, using up to 4 threads for concurrent optimization.

Dual crossover.
  Dual:  Fixing 67977 variables.
    67976 DMoves:  Infeasibility 5.57661286e-003  Objective 4.00931741e+010
    59086 DMoves:  Infeasibility 5.57661302e-003  Objective 4.00931741e+010
    49336 DMoves:  Infeasibility 5.57661551e-003  Objective 4.00931741e+010
    38730 DMoves:  Infeasibility 5.57661884e-003  Objective 4.00931741e+010
    18073 DMoves:  Infeasibility 5.57662229e-003  Objective 4.00931741e+010
        0 DMoves:  Infeasibility 4.40485293e-011  Objective 4.00931741e+010
  Dual:  Pushed 58801, exchanged 9176.
  Primal:  Fixing 11831 variables.
    11830 PMoves:  Infeasibility 9.76797310e-010  Objective 4.00931741e+010
    10039 PMoves:  Infeasibility 5.05679054e-010  Objective 4.00931741e+010
     8562 PMoves:  Infeasibility 3.49245965e-010  Objective 4.00931741e+010
     7445 PMoves:  Infeasibility 9.85892257e-010  Objective 4.00931741e+010
     5828 PMoves:  Infeasibility 4.16548573e-010  Objective 4.00931741e+010
     3960 PMoves:  Infeasibility 5.09317033e-011  Objective 4.00931741e+010
     2118 PMoves:  Infeasibility 3.14685167e-010  Objective 4.00931741e+010
   Elapsed crossover time = 6.94 sec. (10505.70 ticks, 2118 PMoves)
      380 PMoves:  Infeasibility 2.92857294e-010  Objective 4.00931741e+010
        0 PMoves:  Infeasibility 3.02875947e-010  Objective 4.00931741e+010
  Primal:  Pushed 2728, exchanged 9103.
Reinitializing dual norms . . .

Dual simplex solved model.

Total crossover time = 17.41 sec. (22308.40 ticks)

Total time on 4 threads = 64.38 sec. (33481.02 ticks)
LP status(1): optimal
Cplex Time: 64.38sec (det. 33481.80 ticks)

Optimal solution found.
Objective : 40093174100.508324

--- Scenario scen3:     Records read:    1
--- Solution statistics for scenario scen3
---   Solver Status    1 Normal Completion         
---   Model Status     1 Optimal                   
---   Objective Value  40093174100.5083
---   Resource Usage   65860
---   Total Time (ms)  66047
--- Restarting execution
--- DIETER.gms(3227) 195 Mb
--- Reading solution for model DIETER
--- Executing after solve: elapsed 0:04:29.740
--- DIETER.gms(3227) 195 Mb
---
--- scattering and reading gdx file
---
--- DIETER.gms(3227) 196 Mb
--- marginal Id = con5a_minRES maps to marginal_con5a
--- marginal Id = con1a_bal maps to marginal_con1a
--- level    Id = Z maps to lev_Z
--- level    Id = G_L maps to lev_G_L
--- level    Id = G_UP maps to lev_G_UP
--- level    Id = G_DO maps to lev_G_DO
--- level    Id = G_RES maps to lev_G_RES
--- level    Id = CU maps to lev_CU
--- level    Id = STO_IN maps to lev_STO_IN
--- level    Id = STO_OUT maps to lev_STO_OUT
--- level    Id = STO_L maps to lev_STO_L
--- level    Id = N_TECH maps to lev_N_TECH
--- level    Id = N_STO_E maps to lev_N_STO_E
--- level    Id = N_STO_P maps to lev_N_STO_P
--- level    Id = NTC maps to lev_NTC
--- level    Id = F maps to lev_F
--- level    Id = RSVR_OUT maps to lev_RSVR_OUT
--- level    Id = RSVR_L maps to lev_RSVR_L
--- level    Id = N_RSVR_E maps to lev_N_RSVR_E
--- level    Id = N_RSVR_P maps to lev_N_RSVR_P
--- level    Id = G_INFES maps to lev_G_INFES
--- DIETER.gms(3227) 212 Mb
--- GDXin=C:\Users\Lenovo\Documents\GitHub\prosumage\Code\Prosumage_Opt\Dieter_Module\Original\225b\scenrep.dat
--- Scatter finished in 219 ms
--- DIETER.gms(4645) 221 Mb
--- GDX File C:\Users\Lenovo\Documents\GitHub\prosumage\Code\Prosumage_Opt\Dieter_Module\Original\results.gdx
--- GDX File C:\Users\Lenovo\Documents\GitHub\prosumage\Code\Prosumage_Opt\Dieter_Module\Original\test.gdx
*** Status: Normal completion
--- Job DIETER.gms Stop 11/23/18 09:13:18 elapsed 0:04:35.164
